SCIP Status        : solving was interrupted [time limit reached]
Total Time         :    3600.01
  solving          :    3600.00
  presolving       :       0.17 (included in solving)
  reading          :       0.01
  copying          :       0.65 (49 #copies) (minimal 0.00, maximal 0.04, average 0.01)
Original Problem   :
  Problem name     : bbbenchmark/g05_60.9.cut
  Variables        : 61 (60 binary, 0 integer, 0 implicit integer, 1 continuous)
  Constraints      : 1 initial, 1 maximal
  Objective        : minimize, 1 non-zeros (abs.min = 1, abs.max = 1)
Presolved Problem  :
  Problem name     : t_bbbenchmark/g05_60.9.cut
  Variables        : 946 (60 binary, 0 integer, 885 implicit integer, 1 continuous)
  Constraints      : 886 initial, 6179 maximal
  Objective        : minimize, 1 non-zeros (abs.min = 1, abs.max = 1)
  Nonzeros         : 3601 constraint, 122 clique table
Presolvers         :   ExecTime  SetupTime  Calls  FixedVars   AggrVars   ChgTypes  ChgBounds   AddHoles    DelCons    AddCons   ChgSides   ChgCoefs
  boundshift       :       0.00       0.00      0          0          0          0          0          0          0          0          0          0
  convertinttobin  :       0.00       0.00      0          0          0          0          0          0          0          0          0          0
  domcol           :       0.00       0.00      1          0          0          0          0          0          0          0          0          0
  dualagg          :       0.00       0.00      0          0          0          0          0          0          0          0          0          0
  dualcomp         :       0.00       0.00      1          0          0          0          0          0          0          0          0          0
  dualinfer        :       0.00       0.00      0          0          0          0          0          0          0          0          0          0
  dualsparsify     :       0.00       0.00      1          0          0          0          0          0          0          0          0          0
  gateextraction   :       0.00       0.00      0          0          0          0          0          0          0          0          0          0
  implics          :       0.00       0.00      2          0          0          0          0          0          0          0          0          0
  inttobinary      :       0.00       0.00      0          0          0          0          0          0          0          0          0          0
  qpkktref         :       0.00       0.00      0          0          0          0          0          0          0          0          0          0
  redvub           :       0.00       0.00      0          0          0          0          0          0          0          0          0          0
  sparsify         :       0.00       0.00      1          0          0          0          0          0          0          0          0          0
  stuffing         :       0.00       0.00      0          0          0          0          0          0          0          0          0          0
  trivial          :       0.00       0.00      4          0          0          0          0          0          0          0          0          0
  tworowbnd        :       0.00       0.00      0          0          0          0          0          0          0          0          0          0
  dualfix          :       0.00       0.00      4          0          0          0          0          0          0          0          0          0
  genvbounds       :       0.00       0.00      0          0          0          0          0          0          0          0          0          0
  probing          :       0.06       0.00      1          0          0          0          0          0          0          0          0          0
  pseudoobj        :       0.00       0.00      1          0          0          0          1          0          0          0          0          0
  symmetry         :       0.00       0.00      0          0          0          0          0          0          0          0          0          0
  vbounds          :       0.00       0.00      1          0          0          0          0          0          0          0          0          0
  and              :       0.01       0.00      2          0          0          0          0          0          0          0          0          0
  linear           :       0.00       0.00      2          0          0          0          0          0          0          0          0          0
  logicor          :       0.00       0.00      0          0          0          0          0          0          0          0          0          0
  nonlinear        :       0.10       0.00      5          0          0          0          1          0          0        885          0          0
  benders          :       0.00       0.00      0          0          0          0          0          0          0          0          0          0
  components       :       0.00       0.00      1          0          0          0          0          0          0          0          0          0
  root node        :          -          -      -          0          -          -         44          -          -          -          -          -
Constraints        :     Number  MaxNumber  #Separate #Propagate    #EnfoLP    #EnfoRelax  #EnfoPS    #Check   #ResProp    Cutoffs    DomReds       Cuts    Applied      Conss   Children
  benderslp        :          0          0          0          0      95617          0          0      13194          0          0          0          0          0          0          0
  integral         :          0          0          0          0      95617          0          0      13194          0          0       9955          0          0       3598     186950
  and              :        885        885     107432     618737          4          0          0         34     109776         64    3745014       2063       1996          0          0
  linear           :          1+         4        127     618673          4          0          0         32          0          0          0          0          0          0          0
  logicor          :          0+      5293          0     177684          0          0          0          0       1145        867        142          0          0          0          0
  benders          :          0          0          0          0          4          0          0         35          0          0          0          0          0          0          0
  countsols        :          0          0          0          0          4          0          0         35          0          0          0          0          0          0          0
  components       :          0          0          0          0          0          0          0          0          0          0          0          0          0          0          0
Constraint Timings :  TotalTime  SetupTime   Separate  Propagate     EnfoLP     EnfoPS     EnfoRelax   Check    ResProp    SB-Prop
  benderslp        :       0.08       0.00       0.00       0.00       0.08       0.00       0.00       0.00       0.00       0.00
  integral         :      45.85       0.00       0.00       0.00      45.82       0.00       0.00       0.03       0.00       0.00
  and              :      51.80       0.00      30.44      20.75       0.00       0.00       0.00       0.00       0.11       0.50
  linear           :       0.39       0.00       0.00       0.38       0.00       0.00       0.00       0.00       0.00       0.01
  logicor          :      13.01       0.00       0.00      12.96       0.00       0.00       0.00       0.00       0.00       0.05
  benders          :       0.00       0.00       0.00       0.00       0.00       0.00       0.00       0.00       0.00       0.00
  countsols        :       0.00       0.00       0.00       0.00       0.00       0.00       0.00       0.00       0.00       0.00
  components       :       0.17       0.00       0.00       0.17       0.00       0.00       0.00       0.00       0.00       0.00
Propagators        : #Propagate   #ResProp    Cutoffs    DomReds
  dualfix          :          4          0          0          0
  genvbounds       :          0          0          0          0
  nlobbt           :          0          0          0          0
  obbt             :          0          0          0          0
  probing          :          0          0          0          0
  pseudoobj        :     500751          0          0         45
  redcost          :     234006          0          0     536301
  rootredcost      :         18          0          0          0
  symmetry         :          0          0          0          0
  vbounds          :      68216          0          0          0
Propagator Timings :  TotalTime  SetupTime   Presolve  Propagate    ResProp    SB-Prop
  dualfix          :       0.00       0.00       0.00       0.00       0.00       0.00
  genvbounds       :       0.38       0.00       0.00       0.37       0.00       0.01
  nlobbt           :       0.00       0.00       0.00       0.00       0.00       0.00
  obbt             :       0.00       0.00       0.00       0.00       0.00       0.00
  probing          :       0.06       0.00       0.06       0.00       0.00       0.00
  pseudoobj        :       0.73       0.00       0.00       0.72       0.00       0.01
  redcost          :       7.49       0.00       0.00       7.48       0.00       0.01
  rootredcost      :       0.50       0.00       0.00       0.50       0.00       0.00
  symmetry         :       0.32       0.00       0.00       0.32       0.00       0.00
  vbounds          :       0.45       0.00       0.00       0.45       0.00       0.00
Conflict Analysis  :       Time      Calls    Success    DomReds  Conflicts   Literals    Reconvs ReconvLits   Dualrays   Nonzeros   LP Iters   (pool size: [10000,10000])
  propagation      :       0.02        931        605          -        743       26.3          0        0.0          -          -          -
  infeasible LP    :       0.00          0          0          -          0        0.0          0        0.0          3       37.0          0
  bound exceed. LP :      13.99      10910       8372          -      50794       33.8         10       22.3          0        0.0      65501
  strong branching :       0.00          0          0          -          0        0.0          0        0.0          -          -          0
  pseudo solution  :       0.00          0          0          -          0        0.0          0        0.0          -          -          -
  applied globally :       0.15          -          -          0      22739       33.0          -          -          3          -          -
  applied locally  :          -          -          -          0          0        0.0          -          -          0          -          -
Separators         :   ExecTime  SetupTime      Calls  RootCalls    Cutoffs    DomReds  FoundCuts ViaPoolAdd  DirectAdd    Applied ViaPoolApp  DirectApp      Conss
  cut pool         :       1.06          -      20915        156          -          -      22921     293387          -          -          -          -          -    (maximal pool size:       1245)
  aggregation      :     120.05       0.00       4620        127          0          0         11         10          0          8          8          0          0
  > cmir           :          -          -          -          -          -          -          -         10          0          8          8          0          -
  > flowcover      :          -          -          -          -          -          -          -          0          0          0          0          0          -
  > knapsackcover  :          -          -          -          -          -          -          -          0          0          0          0          0          -
  cgmip            :       0.00       0.00          0          0          0          0          0          0          0          0          0          0          0
  clique           :       0.00       0.00        127        127          0          0          0          0          0          0          0          0          0
  closecuts        :       0.00       0.00          0          0          0          0          0          0          0          0          0          0          0
  convexproj       :       0.00       0.00          0          0          0          0          0          0          0          0          0          0          0
  disjunctive      :       0.00       0.00          0          0          0          0          0          0          0          0          0          0          0
  eccuts           :       0.00       0.00          0          0          0          0          0          0          0          0          0          0          0
  gauge            :       0.00       0.00          0          0          0          0          0          0          0          0          0          0          0
  gomory           :       0.00       0.00          0          0          0          0          0          0          0          0          0          0          0
  > gomorymi       :          -          -          -          -          -          -          -          0          0          0          0          0          -
  > strongcg       :          -          -          -          -          -          -          -          0          0          0          0          0          -
  impliedbounds    :       0.14       0.00       4620        127          0          0          1          1          0          1          1          0          0
  interlattice     :       0.08       0.00         40         40          0          0         40          0         40         39          0         39          0
  interminor       :       0.00       0.00          0          0          0          0          0          0          0          0          0          0          0
  intersub         :       0.18       0.00         40         40          0          0         40          0         40         40          0         40          0
  intobj           :       0.00       0.00          0          0          0          0          0          0          0          0          0          0          0
  mcf              :       0.01       0.00          1          1          0          0          0          0          0          0          0          0          0
  minor            :       0.01       0.00          0          0          0          0          0          0          0          0          0          0          0
  mixing           :       0.00       0.00       4620        127          0          0          0          0          0          0          0          0          0
  oddcycle         :       0.00       0.00          0          0          0          0          0          0          0          0          0          0          0
  rapidlearning    :       0.01       0.00          0          0          0          0          0          0          0          0          0          0          0
  rlt              :       0.00       0.00         10         10          0          0          0          0          0          0          0          0          0
  zerohalf         :      10.98       0.00       3669         20          0          0      22909     293376          0      68546      68546          0          0
Cutselectors       :   ExecTime  SetupTime      Calls  RootCalls   Selected     Forced   Filtered  RootSelec   RootForc   RootFilt 
  hybrid           :       0.20       0.00      13373        125      70630          0     224900        276          0         13
Pricers            :   ExecTime  SetupTime      Calls       Vars
  problem variables:       0.00          -          0          0
Branching Rules    :   ExecTime  SetupTime   BranchLP  BranchExt   BranchPS    Cutoffs    DomReds       Cuts      Conss   Children
  allfullstrong    :       0.00       0.00          0          0          0          0          0          0          0          0
  cloud            :       0.00       0.00          0          0          0          0          0          0          0          0
  distribution     :       0.00       0.00          0          0          0          0          0          0          0          0
  fullstrong       :       0.00       0.00          0          0          0          0          0          0          0          0
  inference        :       0.00       0.00          0          0          0          0          0          0          0          0
  leastinf         :       0.00       0.00          0          0          0          0          0          0          0          0
  lookahead        :       0.00       0.00          0          0          0          0          0          0          0          0
  mostinf          :       0.00       0.00          0          0          0          0          0          0          0          0
  multaggr         :       0.00       0.00          0          0          0          0          0          0          0          0
  nodereopt        :       0.00       0.00          0          0          0          0          0          0          0          0
  pscost           :       0.00       0.00          0          0          0          0          0          0          0          0
  random           :       0.00       0.00          0          0          0          0          0          0          0          0
  relpscost        :      45.63       0.00      95613          0          0          0       9955          0       3612     186950
  vanillafullstrong:       0.00       0.00          0          0          0          0          0          0          0          0
Primal Heuristics  :   ExecTime  SetupTime      Calls      Found       Best
  LP solutions     :       0.00          -          -          4          4
  relax solutions  :       0.00          -          -          0          0
  pseudo solutions :       0.00          -          -          0          0
  strong branching :       0.01          -          -          0          0
  actconsdiving    :       0.00       0.00          0          0          0
  adaptivediving   :       2.29       0.00        101          0          0
  alns             :       2.10       0.00         29          4          4
  bound            :       0.00       0.00          0          0          0
  clique           :       0.00       0.00          1          0          0
  coefdiving       :       0.00       0.00          0          0          0
  completesol      :       0.00       0.00          0          0          0
  conflictdiving   :       7.21       0.00        468          0          0
  crossover        :       0.07       0.00          4          2          2
  dins             :       0.00       0.00          0          0          0
  distributiondivin:      23.01       0.00        468          0          0
  dps              :       0.00       0.00          0          0          0
  dualval          :       0.00       0.00          0          0          0
  farkasdiving     :       0.00       0.00          0          0          0
  feaspump         :       0.01       0.00          0          0          0
  fixandinfer      :       0.00       0.00          0          0          0
  fracdiving       :      12.74       0.00        468          0          0
  gins             :       0.03       0.00          0          0          0
  guideddiving     :      12.67       0.00        468          4          4
  indicator        :       0.11       0.00          0          0          0
  indicatordiving  :       0.00       0.00          0          0          0
  intdiving        :       0.00       0.00          0          0          0
  intshifting      :       0.07       0.00         19          0          0
  linesearchdiving :      12.23       0.00        468          0          0
  localbranching   :       0.00       0.00          0          0          0
  locks            :       0.01       0.00          1          0          0
  lpface           :       0.09       0.00          0          0          0
  mpec             :       0.70       0.00          1          0          0
  multistart       :       0.00       0.00          0          0          0
  mutation         :       0.00       0.00          0          0          0
  nlpdiving        :       2.21       0.00          9          0          0
  objpscostdiving  :      25.50       0.00        125          6          2
  octane           :       0.00       0.00          0          0          0
  ofins            :       0.09       0.00          0          0          0
  oneopt           :       0.14       0.00         29          0          0
  padm             :       0.00       0.00          0          0          0
  proximity        :       0.00       0.00          0          0          0
  pscostdiving     :      12.87       0.00        467          3          3
  randrounding     :       0.49       0.00      13155          0          0
  rens             :       0.00       0.00          0          0          0
  reoptsols        :       0.00       0.00          0          0          0
  repair           :       0.00       0.00          0          0          0
  rins             :       3.59       0.00         17          0          0
  rootsoldiving    :       9.53       0.00         47          1          0
  rounding         :       0.66       0.00       4552          0          0
  shiftandpropagate:       0.00       0.00          0          0          0
  shifting         :      20.30       0.00      14403         10         10
  simplerounding   :       0.13       0.00          0          0          0
  subnlp           :      76.51       0.00          0          0          0
  trivial          :       0.00       0.00          2          2          2
  trivialnegation  :       0.00       0.00          0          0          0
  trustregion      :       0.00       0.00          0          0          0
  trysol           :       0.15       0.00          0          0          0
  twoopt           :       0.00       0.00          0          0          0
  undercover       :       0.08       0.00          1          0          0
  vbounds          :       0.00       0.00          0          0          0
  veclendiving     :       5.66       0.00        468          0          0
  zeroobj          :       0.00       0.00          0          0          0
  zirounding       :       0.25       0.00       1000          0          0
  other solutions  :          -          -          -          0          -
Diving (single)    :      Calls      Nodes   LP Iters Backtracks  Conflicts   MinDepth   MaxDepth   AvgDepth  RoundSols  NLeafSols  MinSolDpt  MaxSolDpt  AvgSolDpt
  actconsdiving    :          0          -          -          -          -          -          -          -          -          -          -          -          -
  coefdiving       :          0          -          -          -          -          -          -          -          -          -          -          -          -
  conflictdiving   :        468       8778      76831        490       7362         23         48       32.8          0          -          -          -          -
  distributiondivin:        468       5680     174144        726       5170         21         40       25.7          0          -          -          -          -
  farkasdiving     :          0          -          -          -          -          -          -          -          -          -          -          -          -
  fracdiving       :        468      46134     140790        362       2365         27        227      113.0          0          -          -          -          -
  guideddiving     :        468      43414     147548        289       2136         31        218      107.2          0          4         47         71       58.5
  indicatordiving  :          0          -          -          -          -          -          -          -          -          -          -          -          -
  linesearchdiving :        468      11203     140889        605       8218         23         56       37.7          0          -          -          -          -
  pscostdiving     :        467       8080     158895        474       6896         23         47       31.4          0          3         43         47       45.7
  veclendiving     :        468       8575      43987        470       7776         27         50       32.6          0          -          -          -          -
Diving (adaptive)  :      Calls      Nodes   LP Iters Backtracks  Conflicts   MinDepth   MaxDepth   AvgDepth  RoundSols  NLeafSols  MinSolDpt  MaxSolDpt  AvgSolDpt
  actconsdiving    :         18        238       6722         32        193         22         34       26.4          0          -          -          -          -
  coefdiving       :         31        588       3911         31        550         28         41       32.9          0          -          -          -          -
  conflictdiving   :          0          -          -          -          -          -          -          -          -          -          -          -          -
  distributiondivin:          0          -          -          -          -          -          -          -          -          -          -          -          -
  farkasdiving     :          0          -          -          -          -          -          -          -          -          -          -          -          -
  fracdiving       :          8        776       1109          2          7         36        157      113.4          0          -          -          -          -
  guideddiving     :          6        425       2415          5         47         35        141       84.7          0          -          -          -          -
  indicatordiving  :          0          -          -          -          -          -          -          -          -          -          -          -          -
  linesearchdiving :         15        417       4222         18        323         31         50       41.0          0          -          -          -          -
  pscostdiving     :         10        193       4036         10        162         29         36       32.7          0          -          -          -          -
  veclendiving     :         13        233       1482         13        230         28         35       31.8          0          -          -          -          -
Neighborhoods      :      Calls  SetupTime  SolveTime SolveNodes       Sols       Best       Exp3  EpsGreedy        UCB TgtFixRate  Opt  Inf Node Stal  Sol  Usr Othr Actv
  rens             :          3       0.06       0.01          1          0          0    0.00000   -1.00000    0.37508      0.550    0    2    0    0    0    0    1    1
  rins             :          2       0.01       0.00          0          0          0    0.00000   -1.00000    0.30216      0.700    0    1    0    0    0    0    1    1
  mutation         :          9       0.12       0.38        285          4          4    0.00000   -1.00000    0.54330      0.553    2    3    0    4    0    0    0    1
  localbranching   :          3       0.10       0.16         72          0          0    0.00000   -1.00000    0.46285      0.662    0    2    0    1    0    0    0    1
  crossover        :          3       0.08       0.05          8          0          0    0.00000   -1.00000    0.53120      0.437    0    3    0    0    0    0    0    1
  proximity        :          3       0.09       0.42         68          0          0    0.00000   -1.00000    0.46279      0.662    0    2    0    1    0    0    0    1
  zeroobjective    :          3       0.08       0.17         63          0          0    0.00000   -1.00000    0.46397      0.662    0    2    0    1    0    0    0    1
  dins             :          3       0.08       0.13         61          0          0    0.00000   -1.00000    0.46265      0.662    0    2    0    1    0    0    0    1
  trustregion      :          0       0.00       0.00          0          0          0    0.00000   -1.00000    1.00000      0.900    0    0    0    0    0    0    0    0
Expressions        :   #IntEval  IntEvalTi   #RevProp  RevPropTi    DomReds    Cutoffs  #Estimate  EstimTime  Branching  #Simplify SimplifyTi Simplified
  pow              :          0       0.00          0       0.00          0          0          0       0.00          0          0       0.00          0
  prod             :       3540       0.00          0       0.00          0          0          0       0.00          0       2655       0.02          0
  sum              :          8       0.00          2       0.00          0          0          0       0.00          0          3       0.00          2
  var              :       3327       0.00          0       0.00          0          0          0       0.00          0       6378       0.00          0
  varidx           :          0       0.00          0       0.00          0          0          0       0.00          0          0       0.00          0
LP                 :       Time      Calls Iterations  Iter/call   Iter/sec  Time-0-It Calls-0-It    ItLimit
  primal LP        :     156.05      17367          0       0.00       0.00     156.00      17367
  dual LP          :    2833.55     221871   22758018     118.25    8031.63       8.49      29417
  lex dual LP      :       0.00          0          0       0.00          -
  barrier LP       :       0.00          0          0       0.00          -       0.00          0
  resolve instable :       0.00          0          0       0.00          -
  diving/probing LP:      91.64      11825    1311476     110.91   14311.17
  strong branching :      26.17       4332     371461      85.75   14194.15          -          -         76
    (at root node) :          -         20       8889     444.45          -
  conflict analysis:       7.50       6580      65501       9.95    8733.47
NLP relaxation     :
  solve time       :       2.19 (9 calls)
  convexity        :  nonconvex (1 linear rows, 0 convex ineq., 0 nonconvex ineq., 885 nonlinear eq. or two-sided ineq.)
NLP Solvers        :  #Problems  ProblemTi    #Solves  SolveTime      #Iter  Time/Iter      #Okay #TimeLimit #IterLimit #LObjLimit #Interrupt  #NumError #EvalError  #OutOfMem #LicenseEr #OtherTerm   #GlobOpt    #LocOpt  #Feasible #LocInfeas #GlobInfea #Unbounded   #Unknown
  ipopt            :          2       5.55         12       2.90        317       0.01         12          0          0          0          0          0          0          0          0          0          0          0          0          3          0          0          9
B&B Tree           :
  number of runs   :          1
  nodes            :     177129 (93475 internal, 83654 leaves)
  feasible leaves  :          4
  infeas. leaves   :        186
  objective leaves :      83464
  nodes (total)    :     177129 (93475 internal, 83654 leaves)
  nodes left       :       9794
  max depth        :         39
  max depth (total):         39
  backtracks       :      44300 (25.0%)
  early backtracks :          0 (0.0%)
  nodes exc. ref.  :          0 (0.0%)
  delayed cutoffs  :          2
  repropagations   :       1069 (296 domain reductions, 0 cutoffs)
  avg switch length:       4.09
  switching time   :     186.32
Estim. Tree Size   :     912095
Estimation Tree    : 186951 nodes (177156 visited, 93475 internal, 83681 leaves, 9795 open), weight: 0.1705 completed 0.3725
Estimations        :      estim      value      trend resolution     smooth
  wbe              :     981701          -          -          -          -
  tree-profile     :         -1          -          -          -          -
  gap              :     809670    0.91111    0.00004        128     825085
  tree-weight      :     912096    0.17048    0.00029        128     918749
  leaf-frequency   :    1014813    0.47235    0.00001        128     963856
  ssg              :     805121    0.51057   -0.00020        128     797243
  open-nodes       :     354312 9795.00000    2.63594        128     353733
Root Node          :
  First LP value   : -1.00000000000000e+00
  First LP Iters   :        638 (31900.00 Iter/sec)
  First LP Time    :       0.02
  Final Dual Bound : -8.79207613845688e-01
  Final Root Iters :       4799
  Root LP Estimate : -5.14374504756417e-01
Solution           :
  Solutions found  :         36 (31 improvements)
  First Solution   : +1.00000000000000e+05   (in run 1, after 0 nodes, 0.04 seconds, depth 0, found by <trivial>)
  Gap First Sol.   :   infinite
  Gap Last Sol.    :      18.48 %
  Primal Bound     : -6.02259887005650e-01   (in run 1, after 46130 nodes, 634.82 seconds, depth 25, found by <relaxation>)
  Dual Bound       : -6.61016949152543e-01
  Gap              :       9.76 %
Integrals          :      Total       Avg%
  primal-dual      :   45046.66      12.51
  primal-ref       :          -          - (not evaluated)
  dual-ref         :          -          - (not evaluated)
